TOUR_SECTION
52
124
18
192
130
30
195
33
92
199
167
70
93
8
162
6
9
43
150
66
156
72
127
45
49
160
161
193
180
82
2
102
80
97
48
165
109
63
151
57
77
84
64
194
89
51
78
189
110
149
94
55
40
36
79
71
37
134
12
103
76
34
139
91
46
198
42
23
96
116
133
73
181
87
171
105
157
119
186
74
67
99
69
101
132
144
108
44
17
163
3
5
154
83
118
197
95
128
122
158
107
61
4
59
173
35
178
60
65
145
174
190
169
13
47
1
117
152
90
166
123
184
141
25
62
148
41
15
135
185
50
179
196
20
159
24
120
188
168
200
27
86
75
113
114
137
143
29
100
14
10
153
19
140
85
142
146
126
147
112
88
172
16
129
11
164
39
175
21
111
104
187
125
38
176
53
131
7
32
98
191
68
182
54
155
28
183
115
170
138
56
58
26
81
106
22
177
31
136
121
-1
EOF